Max time = 7200.0
Tried aggregator 2 times.
MIP Presolve eliminated 3230 rows and 40 columns.
MIP Presolve modified 146 coefficients.
Aggregator did 40 substitutions.
Reduced MIP has 1537 rows, 10666 columns, and 67616 nonzeros.
Reduced MIP has 10666 binaries, 0 generals, 0 SOSs, and 0 indicators.
Presolve time = 0.39 sec. (63.43 ticks)
Tried aggregator 1 time.
Reduced MIP has 1537 rows, 10666 columns, and 67616 nonzeros.
Reduced MIP has 10666 binaries, 0 generals, 0 SOSs, and 0 indicators.
Presolve time = 0.12 sec. (29.53 ticks)
Probing time = 0.19 sec. (5.33 ticks)
Clique table members: 14013.
MIP emphasis: balance optimality and feasibility.
MIP search method: dynamic search.
Parallel mode: deterministic, using up to 4 threads.
Root relaxation solution time = 2.41 sec. (543.41 ticks)

        Nodes                                         Cuts/
   Node  Left     Objective  IInf  Best Integer    Best Bound    ItCnt     Gap

      0     0       18.0000  1396                     18.0000        0         
      0     0       18.0000  1164                 ZeroHalf: 1     7026         
      0     2       18.0000   605                     18.0000     7026         
Elapsed time = 119.50 sec. (22133.71 ticks, tree = 0.01 MB, solutions = 0)
      1     3       18.0000  1034                     18.0000    17462         
      2     3       18.0000  1123                     18.0000    17777         
      3     5       18.0000  1130                     18.0000    34629         
      8     8       18.0000  1201                     18.0000    54758         
     11    12       18.0000  1109                     18.0000    68879         
     13    14       18.0000  1325                     18.0000    83757         
     14    11       18.0000  1174                     18.0000    69055         
     17    13       18.0000  1145                     18.0000    76026         
     18    18       18.0000  1260                     18.0000   103668         
     21    17       18.0000  1260                     18.0000    98673         
Elapsed time = 212.15 sec. (38958.27 ticks, tree = 0.02 MB, solutions = 0)
     24    18       18.0000  1200                     18.0000    99081         
     30    20       18.0000  1232                     18.0000    96369         
     35    31       18.0000  1252                     18.0000   129502         
     39    27       18.0000  1147                     18.0000   124624         
     43    42       18.0000  1018                     18.0000   140327         
     46    45       18.0000   902                     18.0000   145424         
     50    49       18.0000   723                     18.0000   152831         
     53    52       18.0000   573                     18.0000   162395         
     55    50    infeasible                           18.0000   175772         
     59    54       18.0000  1200                     18.0000   181058         
Elapsed time = 315.37 sec. (52261.11 ticks, tree = 0.37 MB, solutions = 0)
     60    38       18.0000  1319                     18.0000   135723         
     63    35       18.0000  1239                     18.0000   136061         
     65    59       18.0000  1088                     18.0000   193173         
     67    61       18.0000  1138                     18.0000   196368         
     75    63       18.0000  1103                     18.0000   199104         
     86    67    infeasible                           18.0000   211664         
     94    75       18.0000   955                     18.0000   230359         
     99    78       18.0000   879                     18.0000   244131         
    104    85       18.0000   906                     18.0000   252305         
    118    88       18.0000   785                     18.0000   257512         
Elapsed time = 378.22 sec. (67509.53 ticks, tree = 0.50 MB, solutions = 0)
    133    90       18.0000   784                     18.0000   271568         
    154    91       18.0000   641                     18.0000   264670         
    175    91    infeasible                           18.0000   272119         
    192   110       18.0000  1108                     18.0000   324820         
    205   113       18.0000  1026                     18.0000   328311         
    220   117       18.0000   941                     18.0000   332125         
    239   128    infeasible                           18.0000   388851         
    259   129       18.0000   848                     18.0000   380331         
    275   120       18.0000  1056                     18.0000   368022         
    293   141    infeasible                           18.0000   411174         
Elapsed time = 443.49 sec. (77429.24 ticks, tree = 0.58 MB, solutions = 0)
    312   180       18.0000   829                     18.0000   460398         
    334   178       18.1176   883                     18.0000   487272         
    354   150       18.0714   615                     18.0000   423462         
    371   151       18.0000   730                     18.0000   430679         
    387   172    infeasible                           18.0000   460734         
    400   187    infeasible                           18.0000   519403         
    412   188       18.0714   684                     18.0000   529442         
    427   190       18.6667   594                     18.0000   538666         
    447   233       18.0000   803                     18.0000   601970         
    474   235       18.0000   646                     18.0000   609107         
Elapsed time = 498.21 sec. (87574.33 ticks, tree = 1.06 MB, solutions = 0)
    497   232    infeasible                           18.0000   654997         
    525   244       20.0000   986                     18.0000   630334         
    546   250       20.0000   778                     18.0000   635597         
    578   252    infeasible                           18.0000   715275         
    605   264       18.0000   922                     18.0000   757592         
    633   269       18.0000   798                     18.0000   763289         
*   638+  251                           22.0000       18.0000            18.18%
    641   271       18.0000   682       22.0000       18.0000   771202   18.18%
    656   294       18.0000   812       22.0000       18.0000   819159   18.18%
    670   313       18.2000   533       22.0000       18.0000   920936   18.18%
    684   322       20.0000   446       22.0000       18.0000   931223   18.18%
Elapsed time = 549.32 sec. (97394.41 ticks, tree = 1.50 MB, solutions = 1)
    701   304       18.0000   829       22.0000       18.0000   894392   18.18%
    716   310       18.0000   745       22.0000       18.0000   901271   18.18%
*   720+  264                           18.0000       18.0000             0.00%
    730   341       20.0000   120       18.0000       18.0000   969195    0.00%
    735   325    infeasible             18.0000       18.0000   937824    0.00%
    742   328       18.0000   954       18.0000       18.0000   945336    0.00%

Zero-half cuts applied:  1

Root node processing (before b&c):
  Real time             =  118.57 sec. (21974.04 ticks)
Parallel b&c, 4 threads:
  Real time             =  455.39 sec. (82534.58 ticks)
  Sync time (average)   =   28.48 sec.
  Wait time (average)   =    0.01 sec.
                          ------------
Total (root+branch&cut) =  573.96 sec. (104508.62 ticks)
P#1 = 1.0
P#16 = 1.0
P#22 = 1.0
P#31 = 1.0
P#34 = 1.0
P#36 = 1.0
P#43 = 1.0
P#58 = 1.0
P#73 = 1.0
P#74 = 1.0
P#89 = 1.0
P#104 = 1.0
P#111 = 1.0
P#113 = 1.0
P#116 = 1.0
P#125 = 1.0
P#131 = 1.0
P#146 = 1.0
P#110 = 1.0
P#37 = 1.0
X#1#31 = 1.0
X#2#113 = 1.0
X#3#58 = 1.0
X#4#43 = 1.0
X#5#131 = 1.0
X#6#110 = 1.0
X#7#22 = 1.0
X#8#73 = 1.0
X#9#16 = 1.0
X#10#89 = 1.0
X#11#37 = 1.0
X#12#36 = 1.0
X#13#116 = 1.0
X#14#1 = 1.0
X#15#104 = 1.0
X#16#111 = 1.0
X#17#34 = 0.9999999999999774
X#18#146 = 1.0
X#19#125 = 1.0
X#20#74 = 1.0
L#1#2 = 1.0
L#1#4 = 1.0
L#1#6 = 1.0
L#1#8 = 1.0
L#1#10 = 1.0
L#1#12 = 1.0
L#1#15 = 1.0
L#1#17 = 1.0
L#1#19 = 1.0
L#2#1 = 1.0
L#2#3 = 1.0
L#2#5 = 1.0
L#2#7 = 1.0
L#2#9 = 1.0
L#2#11 = 1.0
L#2#13 = 1.0
L#2#15 = 1.0
L#2#16 = 1.0
L#2#18 = 1.0
L#3#2 = 1.0
L#3#4 = 1.0
L#3#6 = 1.0
L#3#7 = 1.0
L#3#9 = 1.0
L#3#11 = 1.0
L#3#13 = 1.0
L#3#15 = 1.0
L#3#17 = 1.0
L#3#19 = 1.0
L#4#2 = 1.0
L#4#4 = 1.0
L#4#6 = 1.0
L#4#8 = 1.0
L#4#10 = 1.0
L#4#12 = 1.0
L#4#13 = 1.0
L#4#15 = 1.0
L#4#17 = 1.0
L#4#19 = 1.0
L#5#1 = 1.0
L#5#3 = 1.0
L#5#5 = 1.0
L#5#7 = 1.0
L#5#8 = 1.0
L#5#10 = 1.0
L#5#12 = 1.0
L#5#14 = 1.0
L#5#16 = 1.0
L#5#18 = 1.0
L#6#1 = 1.0
L#6#3 = 1.0
L#6#5 = 1.0
L#6#7 = 1.0
L#6#9 = 1.0
L#6#11 = 1.0
L#6#13 = 1.0
L#6#15 = 1.0
L#6#17 = 1.0
L#6#19 = 1.0
L#7#2 = 1.0
L#7#4 = 1.0
L#7#6 = 1.0
L#7#8 = 1.0
L#7#11 = 1.0
L#7#13 = 1.0
L#7#15 = 1.0
L#7#17 = 1.0
L#7#19 = 1.0
L#8#2 = 1.0
L#8#3 = 1.0
L#8#5 = 1.0
L#8#7 = 1.0
L#8#9 = 1.0
L#8#11 = 1.0
L#8#13 = 1.0
L#8#15 = 1.0
L#8#17 = 1.0
L#8#19 = 1.0
L#9#2 = 1.0
L#9#4 = 1.0
L#9#6 = 1.0
L#9#9 = 1.0
L#9#11 = 1.0
L#9#13 = 1.0
L#9#15 = 1.0
L#9#17 = 1.0
L#9#19 = 1.0
L#10#1 = 1.0
L#10#3 = 1.0
L#10#5 = 1.0
L#10#8 = 1.0
L#10#10 = 1.0
L#10#12 = 1.0
L#10#14 = 1.0
L#10#16 = 1.0
L#10#18 = 1.0
L#11#2 = 1.0
L#11#4 = 1.0
L#11#6 = 1.0
L#11#8 = 1.0
L#11#10 = 1.0
L#11#12 = 1.0
L#11#14 = 1.0
L#11#16 = 1.0
L#11#18 = 1.0
L#12#2 = 1.0
L#12#4 = 1.0
L#12#6 = 1.0
L#12#8 = 1.0
L#12#10 = 1.0
L#12#12 = 1.0
L#12#14 = 1.0
L#12#16 = 1.0
L#12#19 = 1.0
L#13#1 = 1.0
L#13#3 = 1.0
L#13#5 = 1.0
L#13#7 = 1.0
L#13#9 = 1.0
L#13#11 = 1.0
L#13#13 = 1.0
L#13#14 = 1.0
L#13#16 = 1.0
L#13#18 = 1.0
L#14#2 = 1.0
L#14#5 = 1.0
L#14#7 = 1.0
L#14#9 = 1.0
L#14#11 = 1.0
L#14#13 = 1.0
L#14#15 = 1.0
L#14#17 = 1.0
L#14#19 = 1.0
L#15#1 = 1.0
L#15#3 = 1.0
L#15#5 = 1.0
L#15#7 = 1.0
L#15#9 = 1.0
L#15#11 = 1.0
L#15#14 = 1.0
L#15#16 = 1.0
L#15#18 = 1.0
L#16#1 = 1.0
L#16#3 = 1.0
L#16#5 = 1.0
L#16#7 = 1.0
L#16#9 = 1.0
L#16#11 = 1.0
L#16#13 = 1.0
L#16#15 = 1.0
L#16#17 = 1.0
L#16#18 = 1.0
L#17#2 = 0.9999999999999774
L#17#4 = 1.0
L#17#6 = 0.9999999999999774
L#17#8 = 1.0
L#17#10 = 0.9999999999999913
L#17#12 = 1.0
L#17#14 = 1.0
L#17#17 = 1.0
L#17#19 = 1.0
L#18#1 = 1.0
L#18#3 = 1.0
L#18#4 = 1.0
L#18#6 = 1.0
L#18#8 = 1.0
L#18#10 = 1.0
L#18#12 = 1.0
L#18#14 = 1.0
L#18#16 = 1.0
L#18#18 = 1.0
L#19#1 = 1.0
L#19#3 = 1.0
L#19#5 = 1.0
L#19#7 = 1.0
L#19#9 = 1.0
L#19#10 = 1.0
L#19#12 = 1.0
L#19#14 = 1.0
L#19#16 = 1.0
L#19#18 = 1.0
L#20#1 = 1.0
L#20#4 = 1.0
L#20#6 = 1.0
L#20#8 = 1.0
L#20#10 = 1.0
L#20#12 = 1.0
L#20#14 = 1.0
L#20#16 = 1.0
L#20#18 = 1.0
F#1#2#8 = 1.0
F#1#3#10 = 1.0
F#4#1#13 = 1.0
F#5#1#1 = 1.0
F#6#1#5 = 1.00000000000002
F#7#1#11 = 1.0
F#8#1#9 = 1.0
F#1#9#12 = 1.0
F#1#10#2 = 1.0
F#1#11#15 = 1.0
F#12#1#16 = 1.0
F#13#1#7 = 1.0
F#1#14#4 = 0.9999999999999879
F#1#15#19 = 1.0
F#1#16#6 = 1.0
F#17#1#14 = 1.0
F#18#1#18 = 1.0
F#19#1#3 = 1.0
F#1#20#17 = 1.0
F#3#2#2 = 0.9999999999999892
F#4#2#6 = 1.0
F#2#5#11 = 1.0000000000000524
F#6#2#19 = 1.0
F#7#2#4 = 1.0
F#2#8#18 = 0.9999999999999993
F#2#9#1 = 1.0
F#2#10#9 = 1.0
F#2#11#7 = 1.0
F#2#12#5 = 1.0
F#13#2#14 = 1.0
F#14#2#17 = 1.0
F#2#15#15 = 1.0
F#2#16#16 = 1.0
F#2#17#3 = 1.0
F#18#2#12 = 1.0
F#19#2#10 = 1.0
F#2#20#13 = 1.0
F#3#4#11 = 0.9999999999999547
F#5#3#14 = 1.0
F#3#6#4 = 1.0
F#7#3#8 = 1.0
F#8#3#5 = 1.0
F#3#9#7 = 1.0
F#3#10#15 = 1.0000000000000013
F#11#3#16 = 1.0
F#3#12#13 = 1.0
F#13#3#18 = 1.0000000000000133
F#3#14#6 = 1.0
F#15#3#1 = 1.0
F#16#3#3 = 1.0
F#3#17#9 = 1.0000000000000022
F#3#18#17 = 1.0000000000000133
F#3#19#19 = 1.0
F#20#3#12 = 0.9999999999999547
F#5#4#18 = 1.0
F#6#4#9 = 1.0
F#4#7#10 = 1.0000000000000315
F#8#4#7 = 1.0
F#4#9#8 = 1.0
F#4#10#19 = 1.0
F#4#11#17 = 1.0
F#12#4#14 = 1.0
F#13#4#3 = 1.0
F#4#14#12 = 0.9999999999999862
F#15#4#5 = 1.0
F#4#16#4 = 1.0
F#4#17#15 = 1.0
F#18#4#1 = 1.0
F#4#19#2 = 1.0
F#20#4#16 = 1.0
F#6#5#13 = 1.00000000000002
F#7#5#17 = 1.0
F#8#5#15 = 0.9999999999999997
F#5#9#16 = 1.0000000000000007
F#5#10#7 = 1.0
F#5#11#3 = 1.0
F#12#5#4 = 1.0
F#5#13#8 = 1.0
F#14#5#19 = 1.0
F#5#15#12 = 1.0
F#5#16#10 = 1.0000000000000315
F#17#5#2 = 1.0
F#18#5#6 = 1.0000000000000195
F#19#5#9 = 1.0
F#5#20#5 = 1.0
F#6#7#3 = 1.0
F#8#6#2 = 1.0
F#9#6#6 = 1.0
F#10#6#12 = 0.9999999999999574
F#11#6#8 = 1.0
F#6#12#7 = 1.0
F#6#13#17 = 1.0000000000000133
F#6#14#1 = 1.0
F#15#6#16 = 1.0
F#16#6#18 = 1.000000000000022
F#17#6#10 = 0.9999999999999913
F#6#18#11 = 1.0
F#6#19#15 = 1.0000000000000133
F#20#6#14 = 1.0
F#7#8#6 = 1.0
F#9#7#9 = 1.0
F#10#7#18 = 1.0
F#11#7#14 = 1.0
F#12#7#12 = 1.0000000000000313
F#13#7#1 = 1.0
F#14#7#7 = 1.0
F#7#15#2 = 1.0
F#16#7#5 = 1.0
F#7#17#13 = 1.0
F#7#18#15 = 1.0
F#19#7#16 = 1.0
F#7#20#19 = 1.0
F#9#8#4 = 0.9999999999999879
F#10#8#16 = 1.0
F#11#8#10 = 0.9999999999999978
F#8#12#11 = 0.9999999999999476
F#8#13#19 = 1.0
F#8#14#3 = 0.9999999999999879
F#15#8#14 = 1.0
F#16#8#1 = 1.0
F#17#8#12 = 1.0
F#8#18#13 = 1.0
F#8#19#17 = 1.0
F#20#8#8 = 1.0
F#9#10#17 = 0.9999999999999997
F#9#11#13 = 1.0
F#12#9#10 = 1.0
F#9#13#2 = 1.0
F#14#9#5 = 0.9999999999999879
F#15#9#3 = 1.0
F#9#16#19 = 1.0
F#9#17#11 = 1.0
F#18#9#14 = 1.0000000000000118
F#19#9#18 = 1.0
F#9#20#15 = 0.9999999999999997
F#10#11#5 = 1.0
F#10#12#3 = 1.0
F#13#10#11 = 1.0
F#10#14#14 = 1.0
F#10#15#10 = 1.0
F#16#10#13 = 1.0
F#10#17#1 = 1.0
F#18#10#4 = 1.0
F#10#19#8 = 1.0
F#20#10#6 = 0.9999999999999987
F#11#12#18 = 1.0
F#11#13#4 = 1.0
F#14#11#11 = 1.0
F#15#11#9 = 1.0
F#11#16#12 = 1.0
F#17#11#19 = 1.0
F#11#18#2 = 1.0
F#11#19#6 = 1.0
F#20#11#1 = 1.0
F#12#13#6 = 0.9999999999999959
F#14#12#15 = 0.9999999999999862
F#12#15#8 = 0.999999999999986
F#16#12#9 = 1.0
F#17#12#17 = 1.0
F#12#18#19 = 1.0
F#19#12#1 = 1.0
F#12#20#2 = 1.0
F#13#14#16 = 1.0
F#13#15#13 = 1.00000000000002
F#16#13#15 = 1.0
F#13#17#5 = 1.0
F#18#13#10 = 1.0
F#19#13#12 = 0.9999999999999799
F#13#20#9 = 0.9999999999999796
F#15#14#18 = 0.9999999999999892
F#14#16#2 = 1.0
F#17#14#8 = 1.0
F#14#18#9 = 0.9999999999999796
F#14#19#13 = 1.0
F#20#14#10 = 1.0
F#16#15#17 = 1.0
F#17#15#6 = 1.0
F#15#18#7 = 1.0
F#15#19#11 = 0.9999999999999799
F#20#15#4 = 1.0
F#16#17#7 = 1.0
F#18#16#8 = 1.0000000000000118
F#19#16#14 = 1.0
F#16#20#11 = 0.9999999999999799
F#18#17#16 = 1.0
F#17#19#4 = 1.0
F#20#17#18 = 1.0
F#19#18#5 = 1.0000000000000204
F#18#20#3 = 1.0
F#19#20#7 = 1.0
VC#1#2 = 3.0
VC#1#3 = 1.0
VC#2#2 = 3.0
VC#2#3 = 1.0
VC#3#2 = 3.0
VC#3#3 = 1.0
VC#4#2 = 3.0
VC#4#3 = 1.0
VC#5#2 = 3.0
VC#5#3 = 1.0
VC#6#2 = 3.0
VC#6#3 = 1.0
VC#7#2 = 3.0
VC#7#3 = 1.0
VC#8#2 = 3.0
VC#8#3 = 1.0
VC#9#2 = 3.0
VC#9#3 = 1.0
VC#10#2 = 3.0
VC#10#3 = 1.0
VC#11#2 = 3.0
VC#11#3 = 1.0
VC#12#2 = 3.0
VC#12#3 = 1.0
VC#13#1 = 6.0
VC#13#3 = 1.0
VC#14#1 = 6.0
VC#14#3 = 1.0
VC#15#1 = 6.0
VC#15#3 = 1.0
VC#16#1 = 6.0
VC#16#3 = 1.0
VC#17#1 = 6.0
VC#17#3 = 1.0
VC#18#1 = 6.0
VC#18#3 = 1.0
VC#19#1 = 6.0
VC#19#2 = 3.0
VC#20#1 = 6.0
VC#20#2 = 3.0
LC#1#2 = 3.0
LC#1#3 = 1.0
LC#2#2 = 3.0
LC#2#3 = 1.0
LC#3#2 = 3.0
LC#3#3 = 1.0
LC#4#2 = 3.0
LC#4#3 = 1.0
LC#5#2 = 3.0
LC#5#3 = 1.0
LC#6#2 = 3.0
LC#6#3 = 1.0
LC#7#2 = 3.0
LC#7#3 = 1.0
LC#8#2 = 3.0
LC#8#3 = 1.0
LC#9#2 = 3.0
LC#9#3 = 1.0
LC#10#2 = 3.0
LC#10#3 = 1.0
LC#11#2 = 3.0
LC#11#3 = 1.0
LC#12#2 = 3.0
LC#12#3 = 1.0
LC#13#1 = 6.0
LC#13#3 = 1.0
LC#14#1 = 6.0
LC#14#3 = 1.0
LC#15#1 = 6.0
LC#15#3 = 1.0
LC#16#1 = 6.0
LC#16#3 = 1.0
LC#17#1 = 6.0
LC#17#3 = 1.0
LC#18#1 = 6.0
LC#18#3 = 1.0
LC#19#1 = 6.0
LC#19#2 = 3.0
LC#20#1 = 6.0
LC#20#2 = 3.0
